NAME: berlin52
TYPE: TSP
COMMENT: 52 locations in Berlin (Groetschel)
DIMENSION: 52
EDGE_WEIGHT_TYPE: EUC_2D
NODE_COORD_SECTION
1 142 31
2 93 86
3 79 150
4 72 201
5 71 260
6 76 309
7 111 359
8 156 406
9 218 441
10 294 468
11 349 472
12 415 474
13 458 466
14 481 454
15 509 418
16 532 361
17 539 304
18 530 246
19 516 197
20 491 153
21 461 105
22 418 77
23 355 54
24 299 41
25 254 36
EOF
